1
3,66,109,117,150,179
2,68,116,119
4,84
5,56
6
7
8
9
11,13,42
12,133
14
14,87
10,68,116,119
24
24,30
25,26
27
27,35,114
6,7,8,27,35,114
28
30
31,66,71,104,109,117,150
68,83,116,119
122,144
36,143,149
33,63
123,124,127,128,129,134,137,139,142,145,147,151,152,153,154,156,160,162,163,164,165,166,192
34,67
35
37
38,39,40,41
44
45
46
47,48,82
29,49
49,86
51
52
54
54,55
23,66,71,104,109,117,150
68,83,115,119
57
59
32,60
61,62
0,64
65,161
16,20,21,22
69,120
70,186
80
25,80
43,53,85
86
50,135
50,184
87
88
89
90
91
91,96
92
93
94
95
97
94,97
98
99
100,101
126,159,187,188,190,191
102
103
168,170,172,173,174,175,176,178,180
105
106
107
108
72,73,74,75,76,77,78,79,81
17,18,19
129,130,131,136,146,147,148,156,157,158,181,189,194
110,111
58,112,118
113
114
132
121,138,140,141,167
135
161
169
171
177
15,125,155,182,183,193
185
186
